p cnf 238 2291
1 0
225 0
18 34 50 66 82 98 114 130 146 162 178 194 210  0
19 35 51 67 83 99 115 131 147 163 179 195 211  0
20 36 52 68 84 100 116 132 148 164 180 196 212  0
21 37 53 69 85 101 117 133 149 165 181 197 213  0
22 38 54 70 86 102 118 134 150 166 182 198 214  0
23 39 55 71 87 103 119 135 151 167 183 199 215  0
24 40 56 72 88 104 120 136 152 168 184 200 216  0
25 41 57 73 89 105 121 137 153 169 185 201 217  0
26 42 58 74 90 106 122 138 154 170 186 202 218  0
27 43 59 75 91 107 123 139 155 171 187 203 219  0
28 44 60 76 92 108 124 140 156 172 188 204 220  0
29 45 61 77 93 109 125 141 157 173 189 205 221  0
30 46 62 78 94 110 126 142 158 174 190 206 222  0
-17 0
-33 0
-49 0
-65 0
-81 0
-97 0
-113 0
-129 0
-145 0
-161 0
-177 0
-193 0
-209 0
-18 -34 0
-18 -50 0
-18 -66 0
-18 -82 0
-18 -98 0
-18 -114 0
-18 -130 0
-18 -146 0
-18 -162 0
-18 -178 0
-18 -194 0
-18 -210 0
-34 -50 0
-34 -66 0
-34 -82 0
-34 -98 0
-34 -114 0
-34 -130 0
-34 -146 0
-34 -162 0
-34 -178 0
-34 -194 0
-34 -210 0
-50 -66 0
-50 -82 0
-50 -98 0
-50 -114 0
-50 -130 0
-50 -146 0
-50 -162 0
-50 -178 0
-50 -194 0
-50 -210 0
-66 -82 0
-66 -98 0
-66 -114 0
-66 -130 0
-66 -146 0
-66 -162 0
-66 -178 0
-66 -194 0
-66 -210 0
-82 -98 0
-82 -114 0
-82 -130 0
-82 -146 0
-82 -162 0
-82 -178 0
-82 -194 0
-82 -210 0
-98 -114 0
-98 -130 0
-98 -146 0
-98 -162 0
-98 -178 0
-98 -194 0
-98 -210 0
-114 -130 0
-114 -146 0
-114 -162 0
-114 -178 0
-114 -194 0
-114 -210 0
-130 -146 0
-130 -162 0
-130 -178 0
-130 -194 0
-130 -210 0
-146 -162 0
-146 -178 0
-146 -194 0
-146 -210 0
-162 -178 0
-162 -194 0
-162 -210 0
-178 -194 0
-178 -210 0
-194 -210 0
-19 -35 0
-19 -51 0
-19 -67 0
-19 -83 0
-19 -99 0
-19 -115 0
-19 -131 0
-19 -147 0
-19 -163 0
-19 -179 0
-19 -195 0
-19 -211 0
-35 -51 0
-35 -67 0
-35 -83 0
-35 -99 0
-35 -115 0
-35 -131 0
-35 -147 0
-35 -163 0
-35 -179 0
-35 -195 0
-35 -211 0
-51 -67 0
-51 -83 0
-51 -99 0
-51 -115 0
-51 -131 0
-51 -147 0
-51 -163 0
-51 -179 0
-51 -195 0
-51 -211 0
-67 -83 0
-67 -99 0
-67 -115 0
-67 -131 0
-67 -147 0
-67 -163 0
-67 -179 0
-67 -195 0
-67 -211 0
-83 -99 0
-83 -115 0
-83 -131 0
-83 -147 0
-83 -163 0
-83 -179 0
-83 -195 0
-83 -211 0
-99 -115 0
-99 -131 0
-99 -147 0
-99 -163 0
-99 -179 0
-99 -195 0
-99 -211 0
-115 -131 0
-115 -147 0
-115 -163 0
-115 -179 0
-115 -195 0
-115 -211 0
-131 -147 0
-131 -163 0
-131 -179 0
-131 -195 0
-131 -211 0
-147 -163 0
-147 -179 0
-147 -195 0
-147 -211 0
-163 -179 0
-163 -195 0
-163 -211 0
-179 -195 0
-179 -211 0
-195 -211 0
-20 -36 0
-20 -52 0
-20 -68 0
-20 -84 0
-20 -100 0
-20 -116 0
-20 -132 0
-20 -148 0
-20 -164 0
-20 -180 0
-20 -196 0
-20 -212 0
-36 -52 0
-36 -68 0
-36 -84 0
-36 -100 0
-36 -116 0
-36 -132 0
-36 -148 0
-36 -164 0
-36 -180 0
-36 -196 0
-36 -212 0
-52 -68 0
-52 -84 0
-52 -100 0
-52 -116 0
-52 -132 0
-52 -148 0
-52 -164 0
-52 -180 0
-52 -196 0
-52 -212 0
-68 -84 0
-68 -100 0
-68 -116 0
-68 -132 0
-68 -148 0
-68 -164 0
-68 -180 0
-68 -196 0
-68 -212 0
-84 -100 0
-84 -116 0
-84 -132 0
-84 -148 0
-84 -164 0
-84 -180 0
-84 -196 0
-84 -212 0
-100 -116 0
-100 -132 0
-100 -148 0
-100 -164 0
-100 -180 0
-100 -196 0
-100 -212 0
-116 -132 0
-116 -148 0
-116 -164 0
-116 -180 0
-116 -196 0
-116 -212 0
-132 -148 0
-132 -164 0
-132 -180 0
-132 -196 0
-132 -212 0
-148 -164 0
-148 -180 0
-148 -196 0
-148 -212 0
-164 -180 0
-164 -196 0
-164 -212 0
-180 -196 0
-180 -212 0
-196 -212 0
-21 -37 0
-21 -53 0
-21 -69 0
-21 -85 0
-21 -101 0
-21 -117 0
-21 -133 0
-21 -149 0
-21 -165 0
-21 -181 0
-21 -197 0
-21 -213 0
-37 -53 0
-37 -69 0
-37 -85 0
-37 -101 0
-37 -117 0
-37 -133 0
-37 -149 0
-37 -165 0
-37 -181 0
-37 -197 0
-37 -213 0
-53 -69 0
-53 -85 0
-53 -101 0
-53 -117 0
-53 -133 0
-53 -149 0
-53 -165 0
-53 -181 0
-53 -197 0
-53 -213 0
-69 -85 0
-69 -101 0
-69 -117 0
-69 -133 0
-69 -149 0
-69 -165 0
-69 -181 0
-69 -197 0
-69 -213 0
-85 -101 0
-85 -117 0
-85 -133 0
-85 -149 0
-85 -165 0
-85 -181 0
-85 -197 0
-85 -213 0
-101 -117 0
-101 -133 0
-101 -149 0
-101 -165 0
-101 -181 0
-101 -197 0
-101 -213 0
-117 -133 0
-117 -149 0
-117 -165 0
-117 -181 0
-117 -197 0
-117 -213 0
-133 -149 0
-133 -165 0
-133 -181 0
-133 -197 0
-133 -213 0
-149 -165 0
-149 -181 0
-149 -197 0
-149 -213 0
-165 -181 0
-165 -197 0
-165 -213 0
-181 -197 0
-181 -213 0
-197 -213 0
-22 -38 0
-22 -54 0
-22 -70 0
-22 -86 0
-22 -102 0
-22 -118 0
-22 -134 0
-22 -150 0
-22 -166 0
-22 -182 0
-22 -198 0
-22 -214 0
-38 -54 0
-38 -70 0
-38 -86 0
-38 -102 0
-38 -118 0
-38 -134 0
-38 -150 0
-38 -166 0
-38 -182 0
-38 -198 0
-38 -214 0
-54 -70 0
-54 -86 0
-54 -102 0
-54 -118 0
-54 -134 0
-54 -150 0
-54 -166 0
-54 -182 0
-54 -198 0
-54 -214 0
-70 -86 0
-70 -102 0
-70 -118 0
-70 -134 0
-70 -150 0
-70 -166 0
-70 -182 0
-70 -198 0
-70 -214 0
-86 -102 0
-86 -118 0
-86 -134 0
-86 -150 0
-86 -166 0
-86 -182 0
-86 -198 0
-86 -214 0
-102 -118 0
-102 -134 0
-102 -150 0
-102 -166 0
-102 -182 0
-102 -198 0
-102 -214 0
-118 -134 0
-118 -150 0
-118 -166 0
-118 -182 0
-118 -198 0
-118 -214 0
-134 -150 0
-134 -166 0
-134 -182 0
-134 -198 0
-134 -214 0
-150 -166 0
-150 -182 0
-150 -198 0
-150 -214 0
-166 -182 0
-166 -198 0
-166 -214 0
-182 -198 0
-182 -214 0
-198 -214 0
-23 -39 0
-23 -55 0
-23 -71 0
-23 -87 0
-23 -103 0
-23 -119 0
-23 -135 0
-23 -151 0
-23 -167 0
-23 -183 0
-23 -199 0
-23 -215 0
-39 -55 0
-39 -71 0
-39 -87 0
-39 -103 0
-39 -119 0
-39 -135 0
-39 -151 0
-39 -167 0
-39 -183 0
-39 -199 0
-39 -215 0
-55 -71 0
-55 -87 0
-55 -103 0
-55 -119 0
-55 -135 0
-55 -151 0
-55 -167 0
-55 -183 0
-55 -199 0
-55 -215 0
-71 -87 0
-71 -103 0
-71 -119 0
-71 -135 0
-71 -151 0
-71 -167 0
-71 -183 0
-71 -199 0
-71 -215 0
-87 -103 0
-87 -119 0
-87 -135 0
-87 -151 0
-87 -167 0
-87 -183 0
-87 -199 0
-87 -215 0
-103 -119 0
-103 -135 0
-103 -151 0
-103 -167 0
-103 -183 0
-103 -199 0
-103 -215 0
-119 -135 0
-119 -151 0
-119 -167 0
-119 -183 0
-119 -199 0
-119 -215 0
-135 -151 0
-135 -167 0
-135 -183 0
-135 -199 0
-135 -215 0
-151 -167 0
-151 -183 0
-151 -199 0
-151 -215 0
-167 -183 0
-167 -199 0
-167 -215 0
-183 -199 0
-183 -215 0
-199 -215 0
-24 -40 0
-24 -56 0
-24 -72 0
-24 -88 0
-24 -104 0
-24 -120 0
-24 -136 0
-24 -152 0
-24 -168 0
-24 -184 0
-24 -200 0
-24 -216 0
-40 -56 0
-40 -72 0
-40 -88 0
-40 -104 0
-40 -120 0
-40 -136 0
-40 -152 0
-40 -168 0
-40 -184 0
-40 -200 0
-40 -216 0
-56 -72 0
-56 -88 0
-56 -104 0
-56 -120 0
-56 -136 0
-56 -152 0
-56 -168 0
-56 -184 0
-56 -200 0
-56 -216 0
-72 -88 0
-72 -104 0
-72 -120 0
-72 -136 0
-72 -152 0
-72 -168 0
-72 -184 0
-72 -200 0
-72 -216 0
-88 -104 0
-88 -120 0
-88 -136 0
-88 -152 0
-88 -168 0
-88 -184 0
-88 -200 0
-88 -216 0
-104 -120 0
-104 -136 0
-104 -152 0
-104 -168 0
-104 -184 0
-104 -200 0
-104 -216 0
-120 -136 0
-120 -152 0
-120 -168 0
-120 -184 0
-120 -200 0
-120 -216 0
-136 -152 0
-136 -168 0
-136 -184 0
-136 -200 0
-136 -216 0
-152 -168 0
-152 -184 0
-152 -200 0
-152 -216 0
-168 -184 0
-168 -200 0
-168 -216 0
-184 -200 0
-184 -216 0
-200 -216 0
-25 -41 0
-25 -57 0
-25 -73 0
-25 -89 0
-25 -105 0
-25 -121 0
-25 -137 0
-25 -153 0
-25 -169 0
-25 -185 0
-25 -201 0
-25 -217 0
-41 -57 0
-41 -73 0
-41 -89 0
-41 -105 0
-41 -121 0
-41 -137 0
-41 -153 0
-41 -169 0
-41 -185 0
-41 -201 0
-41 -217 0
-57 -73 0
-57 -89 0
-57 -105 0
-57 -121 0
-57 -137 0
-57 -153 0
-57 -169 0
-57 -185 0
-57 -201 0
-57 -217 0
-73 -89 0
-73 -105 0
-73 -121 0
-73 -137 0
-73 -153 0
-73 -169 0
-73 -185 0
-73 -201 0
-73 -217 0
-89 -105 0
-89 -121 0
-89 -137 0
-89 -153 0
-89 -169 0
-89 -185 0
-89 -201 0
-89 -217 0
-105 -121 0
-105 -137 0
-105 -153 0
-105 -169 0
-105 -185 0
-105 -201 0
-105 -217 0
-121 -137 0
-121 -153 0
-121 -169 0
-121 -185 0
-121 -201 0
-121 -217 0
-137 -153 0
-137 -169 0
-137 -185 0
-137 -201 0
-137 -217 0
-153 -169 0
-153 -185 0
-153 -201 0
-153 -217 0
-169 -185 0
-169 -201 0
-169 -217 0
-185 -201 0
-185 -217 0
-201 -217 0
-26 -42 0
-26 -58 0
-26 -74 0
-26 -90 0
-26 -106 0
-26 -122 0
-26 -138 0
-26 -154 0
-26 -170 0
-26 -186 0
-26 -202 0
-26 -218 0
-42 -58 0
-42 -74 0
-42 -90 0
-42 -106 0
-42 -122 0
-42 -138 0
-42 -154 0
-42 -170 0
-42 -186 0
-42 -202 0
-42 -218 0
-58 -74 0
-58 -90 0
-58 -106 0
-58 -122 0
-58 -138 0
-58 -154 0
-58 -170 0
-58 -186 0
-58 -202 0
-58 -218 0
-74 -90 0
-74 -106 0
-74 -122 0
-74 -138 0
-74 -154 0
-74 -170 0
-74 -186 0
-74 -202 0
-74 -218 0
-90 -106 0
-90 -122 0
-90 -138 0
-90 -154 0
-90 -170 0
-90 -186 0
-90 -202 0
-90 -218 0
-106 -122 0
-106 -138 0
-106 -154 0
-106 -170 0
-106 -186 0
-106 -202 0
-106 -218 0
-122 -138 0
-122 -154 0
-122 -170 0
-122 -186 0
-122 -202 0
-122 -218 0
-138 -154 0
-138 -170 0
-138 -186 0
-138 -202 0
-138 -218 0
-154 -170 0
-154 -186 0
-154 -202 0
-154 -218 0
-170 -186 0
-170 -202 0
-170 -218 0
-186 -202 0
-186 -218 0
-202 -218 0
-27 -43 0
-27 -59 0
-27 -75 0
-27 -91 0
-27 -107 0
-27 -123 0
-27 -139 0
-27 -155 0
-27 -171 0
-27 -187 0
-27 -203 0
-27 -219 0
-43 -59 0
-43 -75 0
-43 -91 0
-43 -107 0
-43 -123 0
-43 -139 0
-43 -155 0
-43 -171 0
-43 -187 0
-43 -203 0
-43 -219 0
-59 -75 0
-59 -91 0
-59 -107 0
-59 -123 0
-59 -139 0
-59 -155 0
-59 -171 0
-59 -187 0
-59 -203 0
-59 -219 0
-75 -91 0
-75 -107 0
-75 -123 0
-75 -139 0
-75 -155 0
-75 -171 0
-75 -187 0
-75 -203 0
-75 -219 0
-91 -107 0
-91 -123 0
-91 -139 0
-91 -155 0
-91 -171 0
-91 -187 0
-91 -203 0
-91 -219 0
-107 -123 0
-107 -139 0
-107 -155 0
-107 -171 0
-107 -187 0
-107 -203 0
-107 -219 0
-123 -139 0
-123 -155 0
-123 -171 0
-123 -187 0
-123 -203 0
-123 -219 0
-139 -155 0
-139 -171 0
-139 -187 0
-139 -203 0
-139 -219 0
-155 -171 0
-155 -187 0
-155 -203 0
-155 -219 0
-171 -187 0
-171 -203 0
-171 -219 0
-187 -203 0
-187 -219 0
-203 -219 0
-28 -44 0
-28 -60 0
-28 -76 0
-28 -92 0
-28 -108 0
-28 -124 0
-28 -140 0
-28 -156 0
-28 -172 0
-28 -188 0
-28 -204 0
-28 -220 0
-44 -60 0
-44 -76 0
-44 -92 0
-44 -108 0
-44 -124 0
-44 -140 0
-44 -156 0
-44 -172 0
-44 -188 0
-44 -204 0
-44 -220 0
-60 -76 0
-60 -92 0
-60 -108 0
-60 -124 0
-60 -140 0
-60 -156 0
-60 -172 0
-60 -188 0
-60 -204 0
-60 -220 0
-76 -92 0
-76 -108 0
-76 -124 0
-76 -140 0
-76 -156 0
-76 -172 0
-76 -188 0
-76 -204 0
-76 -220 0
-92 -108 0
-92 -124 0
-92 -140 0
-92 -156 0
-92 -172 0
-92 -188 0
-92 -204 0
-92 -220 0
-108 -124 0
-108 -140 0
-108 -156 0
-108 -172 0
-108 -188 0
-108 -204 0
-108 -220 0
-124 -140 0
-124 -156 0
-124 -172 0
-124 -188 0
-124 -204 0
-124 -220 0
-140 -156 0
-140 -172 0
-140 -188 0
-140 -204 0
-140 -220 0
-156 -172 0
-156 -188 0
-156 -204 0
-156 -220 0
-172 -188 0
-172 -204 0
-172 -220 0
-188 -204 0
-188 -220 0
-204 -220 0
-29 -45 0
-29 -61 0
-29 -77 0
-29 -93 0
-29 -109 0
-29 -125 0
-29 -141 0
-29 -157 0
-29 -173 0
-29 -189 0
-29 -205 0
-29 -221 0
-45 -61 0
-45 -77 0
-45 -93 0
-45 -109 0
-45 -125 0
-45 -141 0
-45 -157 0
-45 -173 0
-45 -189 0
-45 -205 0
-45 -221 0
-61 -77 0
-61 -93 0
-61 -109 0
-61 -125 0
-61 -141 0
-61 -157 0
-61 -173 0
-61 -189 0
-61 -205 0
-61 -221 0
-77 -93 0
-77 -109 0
-77 -125 0
-77 -141 0
-77 -157 0
-77 -173 0
-77 -189 0
-77 -205 0
-77 -221 0
-93 -109 0
-93 -125 0
-93 -141 0
-93 -157 0
-93 -173 0
-93 -189 0
-93 -205 0
-93 -221 0
-109 -125 0
-109 -141 0
-109 -157 0
-109 -173 0
-109 -189 0
-109 -205 0
-109 -221 0
-125 -141 0
-125 -157 0
-125 -173 0
-125 -189 0
-125 -205 0
-125 -221 0
-141 -157 0
-141 -173 0
-141 -189 0
-141 -205 0
-141 -221 0
-157 -173 0
-157 -189 0
-157 -205 0
-157 -221 0
-173 -189 0
-173 -205 0
-173 -221 0
-189 -205 0
-189 -221 0
-205 -221 0
-30 -46 0
-30 -62 0
-30 -78 0
-30 -94 0
-30 -110 0
-30 -126 0
-30 -142 0
-30 -158 0
-30 -174 0
-30 -190 0
-30 -206 0
-30 -222 0
-46 -62 0
-46 -78 0
-46 -94 0
-46 -110 0
-46 -126 0
-46 -142 0
-46 -158 0
-46 -174 0
-46 -190 0
-46 -206 0
-46 -222 0
-62 -78 0
-62 -94 0
-62 -110 0
-62 -126 0
-62 -142 0
-62 -158 0
-62 -174 0
-62 -190 0
-62 -206 0
-62 -222 0
-78 -94 0
-78 -110 0
-78 -126 0
-78 -142 0
-78 -158 0
-78 -174 0
-78 -190 0
-78 -206 0
-78 -222 0
-94 -110 0
-94 -126 0
-94 -142 0
-94 -158 0
-94 -174 0
-94 -190 0
-94 -206 0
-94 -222 0
-110 -126 0
-110 -142 0
-110 -158 0
-110 -174 0
-110 -190 0
-110 -206 0
-110 -222 0
-126 -142 0
-126 -158 0
-126 -174 0
-126 -190 0
-126 -206 0
-126 -222 0
-142 -158 0
-142 -174 0
-142 -190 0
-142 -206 0
-142 -222 0
-158 -174 0
-158 -190 0
-158 -206 0
-158 -222 0
-174 -190 0
-174 -206 0
-174 -222 0
-190 -206 0
-190 -222 0
-206 -222 0
18 19 20 21 22 23 24 25 26 27 28 29 30  0
34 35 36 37 38 39 40 41 42 43 44 45 46  0
50 51 52 53 54 55 56 57 58 59 60 61 62  0
66 67 68 69 70 71 72 73 74 75 76 77 78  0
82 83 84 85 86 87 88 89 90 91 92 93 94  0
98 99 100 101 102 103 104 105 106 107 108 109 110  0
114 115 116 117 118 119 120 121 122 123 124 125 126  0
130 131 132 133 134 135 136 137 138 139 140 141 142  0
146 147 148 149 150 151 152 153 154 155 156 157 158  0
162 163 164 165 166 167 168 169 170 171 172 173 174  0
178 179 180 181 182 183 184 185 186 187 188 189 190  0
194 195 196 197 198 199 200 201 202 203 204 205 206  0
210 211 212 213 214 215 216 217 218 219 220 221 222  0
-2 0
-226 0
-3 0
-227 0
-4 0
-228 0
-5 0
-229 0
-6 0
-230 0
-7 0
-231 0
-8 0
-232 0
-9 0
-233 0
-10 0
-234 0
-11 0
-235 0
-12 0
-236 0
-13 0
-237 0
-14 0
-238 0
-18 -19 0
-18 -20 0
-18 -21 0
-18 -22 0
-18 -23 0
-18 -24 0
-18 -25 0
-18 -26 0
-18 -27 0
-18 -28 0
-18 -29 0
-18 -30 0
-19 -20 0
-19 -21 0
-19 -22 0
-19 -23 0
-19 -24 0
-19 -25 0
-19 -26 0
-19 -27 0
-19 -28 0
-19 -29 0
-19 -30 0
-20 -21 0
-20 -22 0
-20 -23 0
-20 -24 0
-20 -25 0
-20 -26 0
-20 -27 0
-20 -28 0
-20 -29 0
-20 -30 0
-21 -22 0
-21 -23 0
-21 -24 0
-21 -25 0
-21 -26 0
-21 -27 0
-21 -28 0
-21 -29 0
-21 -30 0
-22 -23 0
-22 -24 0
-22 -25 0
-22 -26 0
-22 -27 0
-22 -28 0
-22 -29 0
-22 -30 0
-23 -24 0
-23 -25 0
-23 -26 0
-23 -27 0
-23 -28 0
-23 -29 0
-23 -30 0
-24 -25 0
-24 -26 0
-24 -27 0
-24 -28 0
-24 -29 0
-24 -30 0
-25 -26 0
-25 -27 0
-25 -28 0
-25 -29 0
-25 -30 0
-26 -27 0
-26 -28 0
-26 -29 0
-26 -30 0
-27 -28 0
-27 -29 0
-27 -30 0
-28 -29 0
-28 -30 0
-29 -30 0
-34 -35 0
-34 -36 0
-34 -37 0
-34 -38 0
-34 -39 0
-34 -40 0
-34 -41 0
-34 -42 0
-34 -43 0
-34 -44 0
-34 -45 0
-34 -46 0
-35 -36 0
-35 -37 0
-35 -38 0
-35 -39 0
-35 -40 0
-35 -41 0
-35 -42 0
-35 -43 0
-35 -44 0
-35 -45 0
-35 -46 0
-36 -37 0
-36 -38 0
-36 -39 0
-36 -40 0
-36 -41 0
-36 -42 0
-36 -43 0
-36 -44 0
-36 -45 0
-36 -46 0
-37 -38 0
-37 -39 0
-37 -40 0
-37 -41 0
-37 -42 0
-37 -43 0
-37 -44 0
-37 -45 0
-37 -46 0
-38 -39 0
-38 -40 0
-38 -41 0
-38 -42 0
-38 -43 0
-38 -44 0
-38 -45 0
-38 -46 0
-39 -40 0
-39 -41 0
-39 -42 0
-39 -43 0
-39 -44 0
-39 -45 0
-39 -46 0
-40 -41 0
-40 -42 0
-40 -43 0
-40 -44 0
-40 -45 0
-40 -46 0
-41 -42 0
-41 -43 0
-41 -44 0
-41 -45 0
-41 -46 0
-42 -43 0
-42 -44 0
-42 -45 0
-42 -46 0
-43 -44 0
-43 -45 0
-43 -46 0
-44 -45 0
-44 -46 0
-45 -46 0
-50 -51 0
-50 -52 0
-50 -53 0
-50 -54 0
-50 -55 0
-50 -56 0
-50 -57 0
-50 -58 0
-50 -59 0
-50 -60 0
-50 -61 0
-50 -62 0
-51 -52 0
-51 -53 0
-51 -54 0
-51 -55 0
-51 -56 0
-51 -57 0
-51 -58 0
-51 -59 0
-51 -60 0
-51 -61 0
-51 -62 0
-52 -53 0
-52 -54 0
-52 -55 0
-52 -56 0
-52 -57 0
-52 -58 0
-52 -59 0
-52 -60 0
-52 -61 0
-52 -62 0
-53 -54 0
-53 -55 0
-53 -56 0
-53 -57 0
-53 -58 0
-53 -59 0
-53 -60 0
-53 -61 0
-53 -62 0
-54 -55 0
-54 -56 0
-54 -57 0
-54 -58 0
-54 -59 0
-54 -60 0
-54 -61 0
-54 -62 0
-55 -56 0
-55 -57 0
-55 -58 0
-55 -59 0
-55 -60 0
-55 -61 0
-55 -62 0
-56 -57 0
-56 -58 0
-56 -59 0
-56 -60 0
-56 -61 0
-56 -62 0
-57 -58 0
-57 -59 0
-57 -60 0
-57 -61 0
-57 -62 0
-58 -59 0
-58 -60 0
-58 -61 0
-58 -62 0
-59 -60 0
-59 -61 0
-59 -62 0
-60 -61 0
-60 -62 0
-61 -62 0
-66 -67 0
-66 -68 0
-66 -69 0
-66 -70 0
-66 -71 0
-66 -72 0
-66 -73 0
-66 -74 0
-66 -75 0
-66 -76 0
-66 -77 0
-66 -78 0
-67 -68 0
-67 -69 0
-67 -70 0
-67 -71 0
-67 -72 0
-67 -73 0
-67 -74 0
-67 -75 0
-67 -76 0
-67 -77 0
-67 -78 0
-68 -69 0
-68 -70 0
-68 -71 0
-68 -72 0
-68 -73 0
-68 -74 0
-68 -75 0
-68 -76 0
-68 -77 0
-68 -78 0
-69 -70 0
-69 -71 0
-69 -72 0
-69 -73 0
-69 -74 0
-69 -75 0
-69 -76 0
-69 -77 0
-69 -78 0
-70 -71 0
-70 -72 0
-70 -73 0
-70 -74 0
-70 -75 0
-70 -76 0
-70 -77 0
-70 -78 0
-71 -72 0
-71 -73 0
-71 -74 0
-71 -75 0
-71 -76 0
-71 -77 0
-71 -78 0
-72 -73 0
-72 -74 0
-72 -75 0
-72 -76 0
-72 -77 0
-72 -78 0
-73 -74 0
-73 -75 0
-73 -76 0
-73 -77 0
-73 -78 0
-74 -75 0
-74 -76 0
-74 -77 0
-74 -78 0
-75 -76 0
-75 -77 0
-75 -78 0
-76 -77 0
-76 -78 0
-77 -78 0
-82 -83 0
-82 -84 0
-82 -85 0
-82 -86 0
-82 -87 0
-82 -88 0
-82 -89 0
-82 -90 0
-82 -91 0
-82 -92 0
-82 -93 0
-82 -94 0
-83 -84 0
-83 -85 0
-83 -86 0
-83 -87 0
-83 -88 0
-83 -89 0
-83 -90 0
-83 -91 0
-83 -92 0
-83 -93 0
-83 -94 0
-84 -85 0
-84 -86 0
-84 -87 0
-84 -88 0
-84 -89 0
-84 -90 0
-84 -91 0
-84 -92 0
-84 -93 0
-84 -94 0
-85 -86 0
-85 -87 0
-85 -88 0
-85 -89 0
-85 -90 0
-85 -91 0
-85 -92 0
-85 -93 0
-85 -94 0
-86 -87 0
-86 -88 0
-86 -89 0
-86 -90 0
-86 -91 0
-86 -92 0
-86 -93 0
-86 -94 0
-87 -88 0
-87 -89 0
-87 -90 0
-87 -91 0
-87 -92 0
-87 -93 0
-87 -94 0
-88 -89 0
-88 -90 0
-88 -91 0
-88 -92 0
-88 -93 0
-88 -94 0
-89 -90 0
-89 -91 0
-89 -92 0
-89 -93 0
-89 -94 0
-90 -91 0
-90 -92 0
-90 -93 0
-90 -94 0
-91 -92 0
-91 -93 0
-91 -94 0
-92 -93 0
-92 -94 0
-93 -94 0
-98 -99 0
-98 -100 0
-98 -101 0
-98 -102 0
-98 -103 0
-98 -104 0
-98 -105 0
-98 -106 0
-98 -107 0
-98 -108 0
-98 -109 0
-98 -110 0
-99 -100 0
-99 -101 0
-99 -102 0
-99 -103 0
-99 -104 0
-99 -105 0
-99 -106 0
-99 -107 0
-99 -108 0
-99 -109 0
-99 -110 0
-100 -101 0
-100 -102 0
-100 -103 0
-100 -104 0
-100 -105 0
-100 -106 0
-100 -107 0
-100 -108 0
-100 -109 0
-100 -110 0
-101 -102 0
-101 -103 0
-101 -104 0
-101 -105 0
-101 -106 0
-101 -107 0
-101 -108 0
-101 -109 0
-101 -110 0
-102 -103 0
-102 -104 0
-102 -105 0
-102 -106 0
-102 -107 0
-102 -108 0
-102 -109 0
-102 -110 0
-103 -104 0
-103 -105 0
-103 -106 0
-103 -107 0
-103 -108 0
-103 -109 0
-103 -110 0
-104 -105 0
-104 -106 0
-104 -107 0
-104 -108 0
-104 -109 0
-104 -110 0
-105 -106 0
-105 -107 0
-105 -108 0
-105 -109 0
-105 -110 0
-106 -107 0
-106 -108 0
-106 -109 0
-106 -110 0
-107 -108 0
-107 -109 0
-107 -110 0
-108 -109 0
-108 -110 0
-109 -110 0
-114 -115 0
-114 -116 0
-114 -117 0
-114 -118 0
-114 -119 0
-114 -120 0
-114 -121 0
-114 -122 0
-114 -123 0
-114 -124 0
-114 -125 0
-114 -126 0
-115 -116 0
-115 -117 0
-115 -118 0
-115 -119 0
-115 -120 0
-115 -121 0
-115 -122 0
-115 -123 0
-115 -124 0
-115 -125 0
-115 -126 0
-116 -117 0
-116 -118 0
-116 -119 0
-116 -120 0
-116 -121 0
-116 -122 0
-116 -123 0
-116 -124 0
-116 -125 0
-116 -126 0
-117 -118 0
-117 -119 0
-117 -120 0
-117 -121 0
-117 -122 0
-117 -123 0
-117 -124 0
-117 -125 0
-117 -126 0
-118 -119 0
-118 -120 0
-118 -121 0
-118 -122 0
-118 -123 0
-118 -124 0
-118 -125 0
-118 -126 0
-119 -120 0
-119 -121 0
-119 -122 0
-119 -123 0
-119 -124 0
-119 -125 0
-119 -126 0
-120 -121 0
-120 -122 0
-120 -123 0
-120 -124 0
-120 -125 0
-120 -126 0
-121 -122 0
-121 -123 0
-121 -124 0
-121 -125 0
-121 -126 0
-122 -123 0
-122 -124 0
-122 -125 0
-122 -126 0
-123 -124 0
-123 -125 0
-123 -126 0
-124 -125 0
-124 -126 0
-125 -126 0
-130 -131 0
-130 -132 0
-130 -133 0
-130 -134 0
-130 -135 0
-130 -136 0
-130 -137 0
-130 -138 0
-130 -139 0
-130 -140 0
-130 -141 0
-130 -142 0
-131 -132 0
-131 -133 0
-131 -134 0
-131 -135 0
-131 -136 0
-131 -137 0
-131 -138 0
-131 -139 0
-131 -140 0
-131 -141 0
-131 -142 0
-132 -133 0
-132 -134 0
-132 -135 0
-132 -136 0
-132 -137 0
-132 -138 0
-132 -139 0
-132 -140 0
-132 -141 0
-132 -142 0
-133 -134 0
-133 -135 0
-133 -136 0
-133 -137 0
-133 -138 0
-133 -139 0
-133 -140 0
-133 -141 0
-133 -142 0
-134 -135 0
-134 -136 0
-134 -137 0
-134 -138 0
-134 -139 0
-134 -140 0
-134 -141 0
-134 -142 0
-135 -136 0
-135 -137 0
-135 -138 0
-135 -139 0
-135 -140 0
-135 -141 0
-135 -142 0
-136 -137 0
-136 -138 0
-136 -139 0
-136 -140 0
-136 -141 0
-136 -142 0
-137 -138 0
-137 -139 0
-137 -140 0
-137 -141 0
-137 -142 0
-138 -139 0
-138 -140 0
-138 -141 0
-138 -142 0
-139 -140 0
-139 -141 0
-139 -142 0
-140 -141 0
-140 -142 0
-141 -142 0
-146 -147 0
-146 -148 0
-146 -149 0
-146 -150 0
-146 -151 0
-146 -152 0
-146 -153 0
-146 -154 0
-146 -155 0
-146 -156 0
-146 -157 0
-146 -158 0
-147 -148 0
-147 -149 0
-147 -150 0
-147 -151 0
-147 -152 0
-147 -153 0
-147 -154 0
-147 -155 0
-147 -156 0
-147 -157 0
-147 -158 0
-148 -149 0
-148 -150 0
-148 -151 0
-148 -152 0
-148 -153 0
-148 -154 0
-148 -155 0
-148 -156 0
-148 -157 0
-148 -158 0
-149 -150 0
-149 -151 0
-149 -152 0
-149 -153 0
-149 -154 0
-149 -155 0
-149 -156 0
-149 -157 0
-149 -158 0
-150 -151 0
-150 -152 0
-150 -153 0
-150 -154 0
-150 -155 0
-150 -156 0
-150 -157 0
-150 -158 0
-151 -152 0
-151 -153 0
-151 -154 0
-151 -155 0
-151 -156 0
-151 -157 0
-151 -158 0
-152 -153 0
-152 -154 0
-152 -155 0
-152 -156 0
-152 -157 0
-152 -158 0
-153 -154 0
-153 -155 0
-153 -156 0
-153 -157 0
-153 -158 0
-154 -155 0
-154 -156 0
-154 -157 0
-154 -158 0
-155 -156 0
-155 -157 0
-155 -158 0
-156 -157 0
-156 -158 0
-157 -158 0
-162 -163 0
-162 -164 0
-162 -165 0
-162 -166 0
-162 -167 0
-162 -168 0
-162 -169 0
-162 -170 0
-162 -171 0
-162 -172 0
-162 -173 0
-162 -174 0
-163 -164 0
-163 -165 0
-163 -166 0
-163 -167 0
-163 -168 0
-163 -169 0
-163 -170 0
-163 -171 0
-163 -172 0
-163 -173 0
-163 -174 0
-164 -165 0
-164 -166 0
-164 -167 0
-164 -168 0
-164 -169 0
-164 -170 0
-164 -171 0
-164 -172 0
-164 -173 0
-164 -174 0
-165 -166 0
-165 -167 0
-165 -168 0
-165 -169 0
-165 -170 0
-165 -171 0
-165 -172 0
-165 -173 0
-165 -174 0
-166 -167 0
-166 -168 0
-166 -169 0
-166 -170 0
-166 -171 0
-166 -172 0
-166 -173 0
-166 -174 0
-167 -168 0
-167 -169 0
-167 -170 0
-167 -171 0
-167 -172 0
-167 -173 0
-167 -174 0
-168 -169 0
-168 -170 0
-168 -171 0
-168 -172 0
-168 -173 0
-168 -174 0
-169 -170 0
-169 -171 0
-169 -172 0
-169 -173 0
-169 -174 0
-170 -171 0
-170 -172 0
-170 -173 0
-170 -174 0
-171 -172 0
-171 -173 0
-171 -174 0
-172 -173 0
-172 -174 0
-173 -174 0
-178 -179 0
-178 -180 0
-178 -181 0
-178 -182 0
-178 -183 0
-178 -184 0
-178 -185 0
-178 -186 0
-178 -187 0
-178 -188 0
-178 -189 0
-178 -190 0
-179 -180 0
-179 -181 0
-179 -182 0
-179 -183 0
-179 -184 0
-179 -185 0
-179 -186 0
-179 -187 0
-179 -188 0
-179 -189 0
-179 -190 0
-180 -181 0
-180 -182 0
-180 -183 0
-180 -184 0
-180 -185 0
-180 -186 0
-180 -187 0
-180 -188 0
-180 -189 0
-180 -190 0
-181 -182 0
-181 -183 0
-181 -184 0
-181 -185 0
-181 -186 0
-181 -187 0
-181 -188 0
-181 -189 0
-181 -190 0
-182 -183 0
-182 -184 0
-182 -185 0
-182 -186 0
-182 -187 0
-182 -188 0
-182 -189 0
-182 -190 0
-183 -184 0
-183 -185 0
-183 -186 0
-183 -187 0
-183 -188 0
-183 -189 0
-183 -190 0
-184 -185 0
-184 -186 0
-184 -187 0
-184 -188 0
-184 -189 0
-184 -190 0
-185 -186 0
-185 -187 0
-185 -188 0
-185 -189 0
-185 -190 0
-186 -187 0
-186 -188 0
-186 -189 0
-186 -190 0
-187 -188 0
-187 -189 0
-187 -190 0
-188 -189 0
-188 -190 0
-189 -190 0
-194 -195 0
-194 -196 0
-194 -197 0
-194 -198 0
-194 -199 0
-194 -200 0
-194 -201 0
-194 -202 0
-194 -203 0
-194 -204 0
-194 -205 0
-194 -206 0
-195 -196 0
-195 -197 0
-195 -198 0
-195 -199 0
-195 -200 0
-195 -201 0
-195 -202 0
-195 -203 0
-195 -204 0
-195 -205 0
-195 -206 0
-196 -197 0
-196 -198 0
-196 -199 0
-196 -200 0
-196 -201 0
-196 -202 0
-196 -203 0
-196 -204 0
-196 -205 0
-196 -206 0
-197 -198 0
-197 -199 0
-197 -200 0
-197 -201 0
-197 -202 0
-197 -203 0
-197 -204 0
-197 -205 0
-197 -206 0
-198 -199 0
-198 -200 0
-198 -201 0
-198 -202 0
-198 -203 0
-198 -204 0
-198 -205 0
-198 -206 0
-199 -200 0
-199 -201 0
-199 -202 0
-199 -203 0
-199 -204 0
-199 -205 0
-199 -206 0
-200 -201 0
-200 -202 0
-200 -203 0
-200 -204 0
-200 -205 0
-200 -206 0
-201 -202 0
-201 -203 0
-201 -204 0
-201 -205 0
-201 -206 0
-202 -203 0
-202 -204 0
-202 -205 0
-202 -206 0
-203 -204 0
-203 -205 0
-203 -206 0
-204 -205 0
-204 -206 0
-205 -206 0
-210 -211 0
-210 -212 0
-210 -213 0
-210 -214 0
-210 -215 0
-210 -216 0
-210 -217 0
-210 -218 0
-210 -219 0
-210 -220 0
-210 -221 0
-210 -222 0
-211 -212 0
-211 -213 0
-211 -214 0
-211 -215 0
-211 -216 0
-211 -217 0
-211 -218 0
-211 -219 0
-211 -220 0
-211 -221 0
-211 -222 0
-212 -213 0
-212 -214 0
-212 -215 0
-212 -216 0
-212 -217 0
-212 -218 0
-212 -219 0
-212 -220 0
-212 -221 0
-212 -222 0
-213 -214 0
-213 -215 0
-213 -216 0
-213 -217 0
-213 -218 0
-213 -219 0
-213 -220 0
-213 -221 0
-213 -222 0
-214 -215 0
-214 -216 0
-214 -217 0
-214 -218 0
-214 -219 0
-214 -220 0
-214 -221 0
-214 -222 0
-215 -216 0
-215 -217 0
-215 -218 0
-215 -219 0
-215 -220 0
-215 -221 0
-215 -222 0
-216 -217 0
-216 -218 0
-216 -219 0
-216 -220 0
-216 -221 0
-216 -222 0
-217 -218 0
-217 -219 0
-217 -220 0
-217 -221 0
-217 -222 0
-218 -219 0
-218 -220 0
-218 -221 0
-218 -222 0
-219 -220 0
-219 -221 0
-219 -222 0
-220 -221 0
-220 -222 0
-221 -222 0
-1 18 21 26 0
-2 20 22 27 0
-3 18 20 22 0
-4 23 28 30 0
-5 17 25 27 0
-6 19 19 20 0
-7 17 22 26 0
-8 19 29 29 0
-9 18 22 30 0
-10 17 22 27 0
-11 20 26 29 0
-12 17 18 26 0
-13 18 19 28 0
-14 22 23 24 0
-17 34 37 42 0
-18 36 38 43 0
-19 34 36 38 0
-20 39 44 46 0
-21 33 41 43 0
-22 35 35 36 0
-23 33 38 42 0
-24 35 45 45 0
-25 34 38 46 0
-26 33 38 43 0
-27 36 42 45 0
-28 33 34 42 0
-29 34 35 44 0
-30 38 39 40 0
-33 50 53 58 0
-34 52 54 59 0
-35 50 52 54 0
-36 55 60 62 0
-37 49 57 59 0
-38 51 51 52 0
-39 49 54 58 0
-40 51 61 61 0
-41 50 54 62 0
-42 49 54 59 0
-43 52 58 61 0
-44 49 50 58 0
-45 50 51 60 0
-46 54 55 56 0
-49 66 69 74 0
-50 68 70 75 0
-51 66 68 70 0
-52 71 76 78 0
-53 65 73 75 0
-54 67 67 68 0
-55 65 70 74 0
-56 67 77 77 0
-57 66 70 78 0
-58 65 70 75 0
-59 68 74 77 0
-60 65 66 74 0
-61 66 67 76 0
-62 70 71 72 0
-65 82 85 90 0
-66 84 86 91 0
-67 82 84 86 0
-68 87 92 94 0
-69 81 89 91 0
-70 83 83 84 0
-71 81 86 90 0
-72 83 93 93 0
-73 82 86 94 0
-74 81 86 91 0
-75 84 90 93 0
-76 81 82 90 0
-77 82 83 92 0
-78 86 87 88 0
-81 98 101 106 0
-82 100 102 107 0
-83 98 100 102 0
-84 103 108 110 0
-85 97 105 107 0
-86 99 99 100 0
-87 97 102 106 0
-88 99 109 109 0
-89 98 102 110 0
-90 97 102 107 0
-91 100 106 109 0
-92 97 98 106 0
-93 98 99 108 0
-94 102 103 104 0
-97 114 117 122 0
-98 116 118 123 0
-99 114 116 118 0
-100 119 124 126 0
-101 113 121 123 0
-102 115 115 116 0
-103 113 118 122 0
-104 115 125 125 0
-105 114 118 126 0
-106 113 118 123 0
-107 116 122 125 0
-108 113 114 122 0
-109 114 115 124 0
-110 118 119 120 0
-113 130 133 138 0
-114 132 134 139 0
-115 130 132 134 0
-116 135 140 142 0
-117 129 137 139 0
-118 131 131 132 0
-119 129 134 138 0
-120 131 141 141 0
-121 130 134 142 0
-122 129 134 139 0
-123 132 138 141 0
-124 129 130 138 0
-125 130 131 140 0
-126 134 135 136 0
-129 146 149 154 0
-130 148 150 155 0
-131 146 148 150 0
-132 151 156 158 0
-133 145 153 155 0
-134 147 147 148 0
-135 145 150 154 0
-136 147 157 157 0
-137 146 150 158 0
-138 145 150 155 0
-139 148 154 157 0
-140 145 146 154 0
-141 146 147 156 0
-142 150 151 152 0
-145 162 165 170 0
-146 164 166 171 0
-147 162 164 166 0
-148 167 172 174 0
-149 161 169 171 0
-150 163 163 164 0
-151 161 166 170 0
-152 163 173 173 0
-153 162 166 174 0
-154 161 166 171 0
-155 164 170 173 0
-156 161 162 170 0
-157 162 163 172 0
-158 166 167 168 0
-161 178 181 186 0
-162 180 182 187 0
-163 178 180 182 0
-164 183 188 190 0
-165 177 185 187 0
-166 179 179 180 0
-167 177 182 186 0
-168 179 189 189 0
-169 178 182 190 0
-170 177 182 187 0
-171 180 186 189 0
-172 177 178 186 0
-173 178 179 188 0
-174 182 183 184 0
-177 194 197 202 0
-178 196 198 203 0
-179 194 196 198 0
-180 199 204 206 0
-181 193 201 203 0
-182 195 195 196 0
-183 193 198 202 0
-184 195 205 205 0
-185 194 198 206 0
-186 193 198 203 0
-187 196 202 205 0
-188 193 194 202 0
-189 194 195 204 0
-190 198 199 200 0
-193 210 213 218 0
-194 212 214 219 0
-195 210 212 214 0
-196 215 220 222 0
-197 209 217 219 0
-198 211 211 212 0
-199 209 214 218 0
-200 211 221 221 0
-201 210 214 222 0
-202 209 214 219 0
-203 212 218 221 0
-204 209 210 218 0
-205 210 211 220 0
-206 214 215 216 0
-209 226 229 234 0
-210 228 230 235 0
-211 226 228 230 0
-212 231 236 238 0
-213 225 233 235 0
-214 227 227 228 0
-215 225 230 234 0
-216 227 237 237 0
-217 226 230 238 0
-218 225 230 235 0
-219 228 234 237 0
-220 225 226 234 0
-221 226 227 236 0
-222 230 231 232 0
